<?xml version = "1.0" standalone="yes"?>
<!-- This file has been generated by DOcplex version 2.23.222  -->
<CPLEXSolution version="1.0">
 <header
   problemName="CVRP"
   objectiveValue="7830.98"
  />
 <variables>
  <variable name="x_0_2" index="1" value="1.00000"/>
  <variable name="x_0_3" index="2" value="1.00000"/>
  <variable name="x_0_5" index="4" value="1.00000"/>
  <variable name="x_0_7" index="6" value="1.00000"/>
  <variable name="x_0_8" index="7" value="1.00000"/>
  <variable name="x_1_11" index="22" value="1.00000"/>
  <variable name="x_2_9" index="32" value="1.00000"/>
  <variable name="x_3_12" index="47" value="1.00000"/>
  <variable name="x_4_0" index="48" value="1.00000"/>
  <variable name="x_5_1" index="61" value="1.00000"/>
  <variable name="x_6_0" index="72" value="1.00000"/>
  <variable name="x_7_0" index="84" value="1.00000"/>
  <variable name="x_8_10" index="105" value="1.00000"/>
  <variable name="x_9_6" index="114" value="1.00000"/>
  <variable name="x_10_0" index="120" value="1.00000"/>
  <variable name="x_11_4" index="136" value="1.00000"/>
  <variable name="x_12_0" index="144" value="1.00000"/>
  <variable name="u_1" index="156" value="39.00000"/>
  <variable name="u_2" index="157" value="6.00000"/>
  <variable name="u_3" index="158" value="22.00000"/>
  <variable name="u_4" index="159" value="54.00000"/>
  <variable name="u_5" index="160" value="14.00000"/>
  <variable name="u_6" index="161" value="54.00000"/>
  <variable name="u_7" index="162" value="50.00000"/>
  <variable name="u_8" index="163" value="27.00000"/>
  <variable name="u_9" index="164" value="40.00000"/>
  <variable name="u_10" index="165" value="50.00000"/>
  <variable name="u_11" index="166" value="47.00000"/>
  <variable name="u_12" index="167" value="54.00000"/>
 </variables>
</CPLEXSolution>
